SCIP version 5.0.0 [precision: 8 byte] [memory: block] [mode: optimized] [LP solver: NONE] [GitHash: 3bbd232]
Copyright (C) 2002-2017 Konrad-Zuse-Zentrum fuer Informationstechnik Berlin (ZIB)

External codes: 
  Readline EditLine w  GNU library for command line editing (gnu.org/s/readline)
  CppAD 20160000.1     Algorithmic Differentiation of C++ algorithms developed by B. Bell (www.coin-or.org/CppAD)
  ZLIB 1.2.5           General purpose compression library by J. Gailly and M. Adler (zlib.net)
  GMP 6.1.2            GNU Multiple Precision Arithmetic Library developed by T. Granlund (gmplib.org)

user parameter file <scip.set> not found - using default parameters

read problem <../../Split_data/output/breast/5/3_sample_breast.logreg>
============

File name	:	../../Split_data/output/breast/5/3_sample_breast.logreg
Problem name 	:	3_sample_breast
Number of data	:	155
Number of var	:	33
The given data has linear independence

[dim=1] time: 0.00402
[dim=2] time: 0.00818
[dim=3] time: 0.012473
[dim=4] time: 0.01659
[dim=5] time: 0.020459
[dim=6] time: 0.024129
[dim=7] Time of forward = 0.027859sec.
AIC: 141.473
k: 6

[dim=33] time: 0.011317
[dim=32] time: 0.022656
[dim=31] time: 0.031281
[dim=30] time: 0.042225
[dim=29] time: 0.052352
[dim=28] time: 0.061291
[dim=27] time: 0.070627
[dim=26] time: 0.077631
[dim=25] time: 0.083214
[dim=24] time: 0.090209
[dim=23] time: 0.097409
[dim=22] time: 0.103036
[dim=21] time: 0.108517
[dim=20] Time of backward = 0.113552sec.
AIC: 115.609
k: 21
